c Path planning problem for ProbSAT (3-CNF)
c Generated by gen_cnf.py
p cnf 147 163
1 2 10 0
-10 3 11 0
-11 4 12 0
-12 5 13 0
-13 6 14 0
-14 7 15 0
-15 8 9 0
16 17 25 0
-25 18 26 0
-26 19 27 0
-27 20 28 0
-28 21 29 0
-29 22 30 0
-30 23 24 0
31 32 40 0
-40 33 41 0
-41 34 42 0
-42 35 43 0
-43 36 44 0
-44 37 45 0
-45 38 39 0
46 47 55 0
-55 48 56 0
-56 49 57 0
-57 50 58 0
-58 51 59 0
-59 52 60 0
-60 53 54 0
61 62 70 0
-70 63 71 0
-71 64 72 0
-72 65 73 0
-73 66 74 0
-74 67 75 0
-75 68 69 0
76 77 85 0
-85 78 86 0
-86 79 87 0
-87 80 88 0
-88 81 89 0
-89 82 90 0
-90 83 84 0
91 92 100 0
-100 93 101 0
-101 94 102 0
-102 95 103 0
-103 96 104 0
-104 97 105 0
-105 98 99 0
-1 16 17 0
-2 17 106 0
-106 18 16 0
-3 18 107 0
-107 19 17 0
-4 19 108 0
-108 20 18 0
-5 20 109 0
-109 19 21 0
-6 21 110 0
-110 22 20 0
-7 22 111 0
-111 23 21 0
-8 23 112 0
-112 24 22 0
-9 24 23 0
-16 31 32 0
-17 32 113 0
-113 33 31 0
-18 33 114 0
-114 34 32 0
-19 34 115 0
-115 35 33 0
-20 35 116 0
-116 34 36 0
-21 36 117 0
-117 37 35 0
-22 37 118 0
-118 38 36 0
-23 38 119 0
-119 39 37 0
-24 39 38 0
-31 46 47 0
-32 47 120 0
-120 48 46 0
-33 48 121 0
-121 49 47 0
-34 49 122 0
-122 50 48 0
-35 50 123 0
-123 49 51 0
-36 51 124 0
-124 52 50 0
-37 52 125 0
-125 53 51 0
-38 53 126 0
-126 54 52 0
-39 54 53 0
-46 61 62 0
-47 62 127 0
-127 63 61 0
-48 63 128 0
-128 64 62 0
-49 64 129 0
-129 65 63 0
-50 65 130 0
-130 64 66 0
-51 66 131 0
-131 67 65 0
-52 67 132 0
-132 68 66 0
-53 68 133 0
-133 69 67 0
-54 69 68 0
-61 76 77 0
-62 77 134 0
-134 78 76 0
-63 78 135 0
-135 79 77 0
-64 79 136 0
-136 80 78 0
-65 80 137 0
-137 79 81 0
-66 81 138 0
-138 82 80 0
-67 82 139 0
-139 83 81 0
-68 83 140 0
-140 84 82 0
-69 84 83 0
-76 91 92 0
-77 92 141 0
-141 93 91 0
-78 93 142 0
-142 94 92 0
-79 94 143 0
-143 95 93 0
-80 95 144 0
-144 94 96 0
-81 96 145 0
-145 97 95 0
-82 97 146 0
-146 98 96 0
-83 98 147 0
-147 99 97 0
-84 99 98 0
1 0
-2 0
-3 0
-4 0
-5 0
-6 0
-7 0
-8 0
-9 0
99 0
-91 0
-92 0
-93 0
-94 0
-95 0
-96 0
-97 0
-98 0
